proyfinal/src/viki/013/experimentInOfficeAgust.take6.output/86d745eb-762a-460f-ae8e-601aa3681141.als.dat
{'cnf.clauses': '118081',
 'cnf.totvars': '69608',
 'conflict literals': '1',
 'conflicts': '2',
 'decisions': '768',
 'memused.mb': '15.10',
 'outcome': 'UNSAT',
 'propagations': '18969',
 'restarts': '1',
 'solver.msecs': 30,
 'task.msecs': 81}
