proyfinal/src/viki/013/experimentInOfficeAgust.take6.output/86d745eb-762a-460f-ae8e-601aa3681141.als.out
Reading from standard input... Use '--help' for help.
============================[ Problem Statistics ]=============================
|                                                                             |
|  Number of variables:         69608                                         |
|  Number of clauses:          118081                                         |
|  Parse time:                   0.02 s                                       |
|                                                                             |
============================[ Search Statistics ]==============================
| Conflicts |          ORIGINAL         |          LEARNT          | Progress |
|           |    Vars  Clauses Literals |    Limit  Clauses Lit/Cl |          |
===============================================================================
===============================================================================
restarts              : 1
conflicts             : 2              (66 /sec)
decisions             : 768            (0.00 % random) (25293 /sec)
propagations          : 18969          (624720 /sec)
conflict literals     : 1              (0.00 % deleted)
Memory used           : 15.10 MB
CPU time              : 0.030364 s

UNSATISFIABLE
